
Gurobi 10.0.1 (win64) logging started Thu Jun  1 19:20:37 2023

Set parameter LogFile to value "results/log/MetalMeca_modified_deadline.log"
Gurobi Optimizer version 10.0.1 build v10.0.1rc0 (win64)

CPU model: AMD Ryzen 7 3700X 8-Core Processor, instruction set [SSE2|AVX|AVX2]
Thread count: 8 physical cores, 16 logical processors, using up to 16 threads

Optimize a model with 19886 rows, 88655 columns and 91020 nonzeros
Model fingerprint: 0x1d3fc2bf
Model has 1 quadratic constraint
Variable types: 0 continuous, 88655 integer (88111 binary)
Coefficient statistics:
  Matrix range     [1e+00, 4e+06]
  QMatrix range    [1e+00, 1e+00]
  QLMatrix range   [1e+00, 3e+04]
  Objective range  [1e+00, 1e+00]
  Bounds range     [1e+00, 1e+00]
  RHS range        [1e+00, 1e+07]
Presolve removed 1197 rows and 82835 columns
Presolve time: 0.25s
Presolved: 18761 rows, 5891 columns, 80215 nonzeros
Variable types: 0 continuous, 5891 integer (5276 binary)

Root relaxation: objective 0.000000e+00, 1772 iterations, 0.04 seconds (0.04 work units)

    Nodes    |    Current Node    |     Objective Bounds      |     Work
 Expl Unexpl |  Obj  Depth IntInf | Incumbent    BestBd   Gap | It/Node Time

     0     0    0.00000    0   37          -    0.00000      -     -    0s
     0     0    0.00000    0  166          -    0.00000      -     -    1s
     0     0    0.00000    0  191          -    0.00000      -     -    1s
     0     0    0.00000    0   43          -    0.00000      -     -    1s
     0     0    0.00000    0    7          -    0.00000      -     -    2s
     0     0    0.00000    0    4          -    0.00000      -     -    2s
     0     0    0.00000    0    3          -    0.00000      -     -    2s
H    0     0                       0.0000000    0.00000  0.00%     -    3s
     0     0    0.00000    0    7    0.00000    0.00000  0.00%     -    3s

Cutting planes:
  Learned: 1
  Cover: 1
  Implied bound: 3

Explored 1 nodes (8687 simplex iterations) in 3.29 seconds (2.28 work units)
Thread count was 16 (of 16 available processors)

Solution count 1: 0 

Optimal solution found (tolerance 1.00e-04)
Best objective 0.000000000000e+00, best bound 0.000000000000e+00, gap 0.0000%
Warning: variable name "y[job:0, stage:0, machine:1]" has a space
Warning: constraint name "precedence between 3,0 to 0,0 if x_[j,l,h,z,i]=1" has a space
Warning: to let Gurobi read it back, use rlp format
Warning: variable name "y[job:0, stage:0, machine:1]" has a space
Warning: constraint name "precedence between 3,0 to 0,0 if x_[j,l,h,z,i]=1" has a space
Warning: default variable names used to write mps file
Warning: default constraint names used to write mps file
Warning: variable name "y[job:0, stage:0, machine:1]" has a space
Warning: default variable names used to write solution file
